%nprocshared=8
%mem=16GB
%chk=ccpvdz_Radical-0006_IRCforward_Complex_R2.chk
# opt=calcfc freq m062x cc-pvdz empiricaldispersion=gd3 

ccpvdz_Radical-0006_IRCforward_Complex_R2 optfreq

0 1
 C      -1.35480100     -2.00568200      1.09949300
 C      -1.02290300     -0.95329600      1.94414300
 C      -0.31932900      0.12728400      1.41081400
 C       0.06326800      0.16212600      0.04589300
 C      -0.29592400     -0.89979700     -0.79720300
 C      -0.99968800     -1.97520400     -0.26863500
 H      -1.90255700     -2.85223100      1.50816800
 H      -1.31250100     -0.98084500      2.99521100
 H      -0.05467500     -0.90795400     -1.86137700
 C       0.76304500      1.40192000     -0.17096000
 N       0.11336100      1.30188700      1.98462500
 H       0.02881900      1.54385600      2.96045000
 C       1.48963700      1.78196200     -1.42294000
 H       0.94023900      1.39290000     -2.29621500
 H       1.52905900      2.87546400     -1.54151800
 C       2.93043400      1.23332900     -1.42059200
 H       3.52117200      1.75231700     -0.65479300
 H       3.40521800      1.40038800     -2.39908300
 N       2.99871500     -0.17532800     -1.08163700
 H       2.52086200     -0.82890800     -1.69141400
 C       3.15960100     -0.56888000      0.22582000
 C       2.84609100     -2.02478600      0.49849400
 H       2.93744600     -2.65510500     -0.39608100
 H       3.51819700     -2.38606300      1.28508000
 H       1.81014500     -2.08658200      0.86828900
 O       3.52639200      0.19207300      1.10178600
 O      -1.30906000     -2.97245200     -1.14895400
 C      -2.05344500     -4.06349400     -0.66223600
 H      -1.50815000     -4.60870000      0.12671500
 H      -3.03200800     -3.74317400     -0.26698300
 H      -2.21111000     -4.73134800     -1.51645500
 C       0.76938000      2.05086800      1.03674700
 H       1.22409100      3.00072700      1.30374800

--Link1--
%nprocshared=8
%mem=16GB
%chk=ccpvdz_Radical-0006_IRCforward_Complex_R2.chk
# m062x cc-pvtz empiricaldispersion=gd3 Geom=Checkpoint

ccpvdz_Radical-0006_IRCforward_Complex_R2 E_ccpvtz

0 1

--Link1--
%nprocshared=8
%mem=16GB
%chk=ccpvdz_Radical-0006_IRCforward_Complex_R2.chk
# m062x cc-pvqz empiricaldispersion=gd3 Geom=Checkpoint

ccpvdz_Radical-0006_IRCforward_Complex_R2 E_ccpvqz

0 1

