%nprocshared=8
%mem=16GB
%chk=ccpvdz_Radical-0045_IRCforward_Complex.chk
# opt=calcfc freq m062x cc-pvdz empiricaldispersion=gd3 

ccpvdz_Radical-0045_IRCforward_Complex optfreq

0 2
C -3.658326 -0.295388 1.119535
C -2.558186 0.062711 1.890349
C -1.290581 -0.037998 1.318387
C -1.111458 -0.490234 -0.012805
C -2.230653 -0.840486 -0.779266
C -3.494912 -0.746964 -0.208743
H -4.651154 -0.221778 1.558705
H -2.694816 0.410695 2.914920
H -2.144761 -1.190092 -1.808684
C 0.304397 -0.487334 -0.277698
N -0.039255 0.226681 1.831330
H 0.158039 0.528536 2.773495
C 0.941112 -0.829934 -1.589822
H 0.555513 -1.801675 -1.947797
H 0.636748 -0.089330 -2.348753
C 2.467632 -0.869763 -1.560985
H 2.874093 0.063267 -1.149589
H 2.849053 -0.975754 -2.588046
N 2.993417 -1.944131 -0.739151
H 2.726404 -2.893711 -0.966426
C 3.726878 -1.736567 0.388064
C 4.090983 -2.991223 1.154352
H 3.281654 -3.215762 1.864808
H 4.231077 -3.859649 0.497069
H 5.007154 -2.798413 1.722303
O 4.044126 -0.623529 0.780003
O -4.537509 -1.117866 -1.011534
C -5.832274 -1.058139 -0.465338
H -5.934678 -1.718284 0.412795
H -6.104910 -0.029691 -0.173508
H -6.513141 -1.399792 -1.253106
C 0.988642 2.589579 -0.275892
F 1.503846 2.265887 -1.452130
F -0.321712 2.678639 -0.348421
F 1.514375 3.718882 0.162587
C 0.913216 -0.053561 0.876643
H 1.972522 0.077893 1.093326

--Link1--
%nprocshared=8
%mem=16GB
%chk=ccpvdz_Radical-0045_IRCforward_Complex.chk
# m062x cc-pvtz empiricaldispersion=gd3  Geom=Checkpoint

ccpvdz_Radical-0045_IRCforward_Complex E_ccpvtz

0 2

--Link1--
%nprocshared=8
%mem=16GB
%chk=ccpvdz_Radical-0045_IRCforward_Complex.chk
# m062x cc-pvqz empiricaldispersion=gd3  Geom=Checkpoint

ccpvdz_Radical-0045_IRCforward_Complex E_ccpvqz

0 2

