%nprocshared=8
%mem=16GB
%chk=ccpvdz_Radical-0048_IRCreverse_Product.chk
# opt=calcfc freq m062x cc-pvdz empiricaldispersion=gd3 

ccpvdz_Radical-0048_IRCreverse_Product optfreq

0 2
C -3.149779 0.099613 1.127535
C -1.970439 0.513871 1.767055
C -0.785302 0.479495 1.059510
C -0.751883 0.039845 -0.296428
C -1.931170 -0.402794 -0.916260
C -3.125233 -0.362840 -0.200282
H -4.084053 0.133215 1.684008
H -1.999775 0.847044 2.804611
H -1.946023 -0.760811 -1.945596
C 0.570476 0.155170 -0.764152
N 0.515121 0.757297 1.495797
H 0.638674 1.502458 2.175049
C 1.150481 -0.397030 -2.020840
H 0.463674 -0.232465 -2.866937
H 2.088124 0.126397 -2.264338
C 1.416907 -1.913107 -1.898598
H 1.902509 -2.287005 -2.812135
H 0.466981 -2.446041 -1.761629
N 2.226118 -2.239967 -0.741885
H 3.193273 -1.941681 -0.723300
C 1.643491 -2.634621 0.438157
C 2.567087 -2.650840 1.638137
H 3.631232 -2.686167 1.369676
H 2.367524 -1.737907 2.220389
H 2.309691 -3.510569 2.267105
O 0.468155 -2.929429 0.521193
O -4.231304 -0.786491 -0.875732
C -5.460024 -0.763574 -0.189422
H -6.210559 -1.139968 -0.893274
H -5.439102 -1.414011 0.701042
H -5.733107 0.259844 0.118885
C 1.761884 2.226977 -0.010701
F 0.694579 2.980771 -0.278053
F 2.406958 2.806748 1.020508
F 2.581608 2.276258 -1.071695
C 1.387317 0.788437 0.331086
H 2.344210 0.264369 0.511945

--Link1--
%nprocshared=8
%mem=16GB
%chk=ccpvdz_Radical-0048_IRCreverse_Product.chk
# m062x cc-pvtz empiricaldispersion=gd3  Geom=Checkpoint

ccpvdz_Radical-0048_IRCreverse_Product E_ccpvtz

0 2

--Link1--
%nprocshared=8
%mem=16GB
%chk=ccpvdz_Radical-0048_IRCreverse_Product.chk
# m062x cc-pvqz empiricaldispersion=gd3  Geom=Checkpoint

ccpvdz_Radical-0048_IRCreverse_Product E_ccpvqz

0 2

