%nprocshared=8
%mem=16GB
%chk=ccpvdz_Radical-0006_IRCforward_Complex_R1.chk
# opt=calcfc freq m062x cc-pvdz empiricaldispersion=gd3 

ccpvdz_Radical-0006_IRCforward_Complex_R1 optfreq

0 2
 C      -2.34935200      1.83039700     -0.23460200
 F      -3.17576200      0.81796600     -0.06740700
 F      -2.87742200      2.94849500      0.23234300
 F      -2.02387400      1.96597300     -1.50635000

--Link1--
%nprocshared=8
%mem=16GB
%chk=ccpvdz_Radical-0006_IRCforward_Complex_R1.chk
# m062x cc-pvtz empiricaldispersion=gd3 Geom=Checkpoint

ccpvdz_Radical-0006_IRCforward_Complex_R1 E_ccpvtz

0 2

--Link1--
%nprocshared=8
%mem=16GB
%chk=ccpvdz_Radical-0006_IRCforward_Complex_R1.chk
# m062x cc-pvqz empiricaldispersion=gd3 Geom=Checkpoint

ccpvdz_Radical-0006_IRCforward_Complex_R1 E_ccpvqz

0 2

