%nprocshared=8
%mem=16GB
%chk=ccpvdz_Radical-0001_IRCforward_Complex_R2.chk
# opt=calcfc freq m062x cc-pvdz empiricaldispersion=gd3 

ccpvdz_Radical-0001_IRCforward_Complex_R2 optfreq

0 1
 C      -0.00749700     -3.00685600     -0.30417100
 C      -1.31044600     -2.66776600     -0.00971800
 C      -1.53210900     -1.47154900      0.68968900
 C      -0.47107800     -0.62549100      1.09089900
 C       0.85915300     -0.99632800      0.78333100
 C       1.07394900     -2.17708100      0.08759700
 H       0.23175900     -3.91970800     -0.84885000
 H      -2.13928200     -3.30542300     -0.31984500
 H       1.69674000     -0.36054500      1.06076000
 C      -1.07293200      0.53291700      1.71217400
 N      -2.71361500     -0.87325600      1.06537200
 H      -3.63672600     -1.21524700      0.84338600
 C      -0.42672500      1.72926300      2.35691300
 H      -1.14331000      2.56652500      2.32569100
 H      -0.23945400      1.53501700      3.42604500
 C       0.90595400      2.17642000      1.75292700
 H       1.71637300      1.48422700      2.01281800
 H       1.18246800      3.15193400      2.18655500
 N       0.87568400      2.25025700      0.30574400
 H       0.01844000      2.52511900     -0.15799500
 C       1.93637000      1.85175300     -0.44811800
 C       1.72892600      1.86549400     -1.94537900
 H       1.61792300      0.82333500     -2.27793300
 H       0.84257000      2.43127500     -2.25735200
 H       2.62887700      2.27894700     -2.41589800
 O       2.98588400      1.47178700      0.05303200
 O       2.29849100     -2.63768200     -0.28122800
 C       3.41734200     -1.86380600      0.10647400
 H       3.37107000     -0.83990500     -0.29647500
 H       3.49289300     -1.80408400      1.20567600
 H       4.29632300     -2.38441300     -0.28908400
 C      -2.43262100      0.33366900      1.65512500
 H      -3.23282300      0.97612000      2.01352500

--Link1--
%nprocshared=8
%mem=16GB
%chk=ccpvdz_Radical-0001_IRCforward_Complex_R2.chk
# m062x cc-pvtz empiricaldispersion=gd3 Geom=Checkpoint

ccpvdz_Radical-0001_IRCforward_Complex_R2 E_ccpvtz

0 1

--Link1--
%nprocshared=8
%mem=16GB
%chk=ccpvdz_Radical-0001_IRCforward_Complex_R2.chk
# m062x cc-pvqz empiricaldispersion=gd3 Geom=Checkpoint

ccpvdz_Radical-0001_IRCforward_Complex_R2 E_ccpvqz

0 1

