%nprocshared=8
%mem=16GB
%chk=ccpvdz_Radical-0018_IRCforward_Complex_R2.chk
# opt=calcfc freq m062x cc-pvdz empiricaldispersion=gd3 

ccpvdz_Radical-0018_IRCforward_Complex_R2 optfreq

0 1
 C       0.09205300      2.56352100      1.20810500
 C       0.90970300      1.70902100      1.91822600
 C       0.96695300      0.36858000      1.50818600
 C       0.22480700     -0.10598200      0.40272700
 C      -0.59785600      0.78691300     -0.31904300
 C      -0.66556800      2.10824600      0.09905100
 H       0.00099500      3.61484300      1.47975200
 H       1.48893700      2.06894900      2.76944900
 H      -1.18416600      0.43806000     -1.16578300
 C       0.52323900     -1.51206500      0.26512900
 N       1.67883600     -0.69397400      2.01993200
 H       2.31295700     -0.65221900      2.80367700
 C       0.03349800     -2.47603700     -0.77798100
 H       0.59012900     -2.33103000     -1.71826900
 H       0.26670800     -3.49728300     -0.43777600
 C      -1.46636800     -2.36868700     -1.10512600
 H      -1.79633500     -3.30090500     -1.58994800
 H      -1.66790300     -1.55884100     -1.81854000
 N      -2.27017400     -2.08732600      0.07070600
 H      -1.87939200     -2.35921300      0.96618200
 C      -3.15569200     -1.04663600      0.08123400
 C      -3.59877000     -0.59704000      1.45484000
 H      -3.62559400     -1.42276500      2.17825300
 H      -2.87873200      0.15936400      1.80647000
 H      -4.58684800     -0.13139600      1.37664600
 O      -3.53269200     -0.49688300     -0.94206800
 O      -1.43901400      3.05807900     -0.48840700
 C      -2.26156600      2.63461100     -1.55931700
 H      -1.65204400      2.30567700     -2.41825700
 H      -2.92681400      1.80987700     -1.25722700
 H      -2.85242500      3.50957300     -1.85126400
 C       1.40501600     -1.81527000      1.27543200
 H       1.87513600     -2.76641300      1.51120400

--Link1--
%nprocshared=8
%mem=16GB
%chk=ccpvdz_Radical-0018_IRCforward_Complex_R2.chk
# m062x cc-pvtz empiricaldispersion=gd3 Geom=Checkpoint

ccpvdz_Radical-0018_IRCforward_Complex_R2 E_ccpvtz

0 1

--Link1--
%nprocshared=8
%mem=16GB
%chk=ccpvdz_Radical-0018_IRCforward_Complex_R2.chk
# m062x cc-pvqz empiricaldispersion=gd3 Geom=Checkpoint

ccpvdz_Radical-0018_IRCforward_Complex_R2 E_ccpvqz

0 1

