%nprocshared=8
%mem=16GB
%chk=ccpvdz_Radical-0003_IRCforward_Complex_R2.chk
# opt=calcfc freq m062x cc-pvdz empiricaldispersion=gd3 

ccpvdz_Radical-0003_IRCforward_Complex_R2 optfreq

0 1
 C       3.45652700     -1.04518700      0.82533200
 C       2.36911000     -1.44749100      1.57439600
 C       1.20767800     -0.66441400      1.51256700
 C       1.14191900      0.50226300      0.71890900
 C       2.26227900      0.90000000     -0.04104500
 C       3.40774900      0.11979100      0.02032800
 H       4.38648800     -1.61290600      0.82864200
 H       2.41730300     -2.34890100      2.18651800
 H       2.21298200      1.80045500     -0.65170500
 C      -0.18839100      1.03507000      0.85443500
 N      -0.02385500     -0.82418300      2.10722300
 H      -0.28691000     -1.58065700      2.72119700
 C      -0.72357900      2.24267700      0.14730600
 H      -0.34195900      3.16771500      0.61157200
 H      -0.34363500      2.24827900     -0.89045000
 C      -2.25007600      2.31697500      0.11775100
 H      -2.56018600      3.27552600     -0.32670200
 H      -2.66796300      2.27107400      1.13209400
 N      -2.85173500      1.22274400     -0.61902100
 H      -2.57387900      1.08287300     -1.58214000
 C      -3.68112500      0.30349300     -0.05041400
 C      -4.23590400     -0.73374900     -1.00446800
 H      -3.60567800     -0.87309600     -1.89212000
 H      -4.33065900     -1.68253500     -0.46499500
 H      -5.23983900     -0.41606300     -1.32076400
 O      -3.98944800      0.32901100      1.13134100
 O       4.55984200      0.38328400     -0.66110100
 C       4.56891000      1.52907000     -1.47690300
 H       3.80267400      1.46661300     -2.26840100
 H       4.39793300      2.44567300     -0.88714300
 H       5.56236800      1.57340200     -1.93665500
 C      -0.85930500      0.19321400      1.71097300
 H      -1.89881200      0.21641400      2.03297300

--Link1--
%nprocshared=8
%mem=16GB
%chk=ccpvdz_Radical-0003_IRCforward_Complex_R2.chk
# m062x cc-pvtz empiricaldispersion=gd3 Geom=Checkpoint

ccpvdz_Radical-0003_IRCforward_Complex_R2 E_ccpvtz

0 1

--Link1--
%nprocshared=8
%mem=16GB
%chk=ccpvdz_Radical-0003_IRCforward_Complex_R2.chk
# m062x cc-pvqz empiricaldispersion=gd3 Geom=Checkpoint

ccpvdz_Radical-0003_IRCforward_Complex_R2 E_ccpvqz

0 1

