%nprocshared=8
%mem=16GB
%chk=ccpvdz_Radical-0018_IRCreverse_Product.chk
# opt=calcfc freq m062x cc-pvdz empiricaldispersion=gd3 

ccpvdz_Radical-0018_IRCreverse_Product optfreq

0 2
C 1.085887 -2.909735 0.646952
C -0.144735 -2.590676 1.211966
C -0.691896 -1.342335 0.942449
C -0.019027 -0.393207 0.111958
C 1.242458 -0.733896 -0.446598
C 1.775262 -1.985443 -0.174617
H 1.554342 -3.878009 0.819517
H -0.665500 -3.304730 1.850466
H 1.773664 -0.033708 -1.085490
C -0.825165 0.754534 0.026443
N -1.860416 -0.783510 1.450841
H -2.652034 -1.391818 1.635335
C -0.611179 2.075772 -0.644061
H -1.085252 2.092975 -1.642291
H -1.152666 2.844683 -0.064103
C 0.847127 2.507907 -0.814786
H 0.866662 3.556750 -1.150815
H 1.358281 1.924580 -1.592031
N 1.605558 2.346575 0.411959
H 1.087429 2.298596 1.281446
C 2.870713 1.838188 0.402572
C 3.405103 1.410377 1.750243
H 2.984055 1.996655 2.577668
H 3.138859 0.351424 1.895653
H 4.496792 1.498403 1.743761
O 3.506688 1.697845 -0.631127
O 2.962423 -2.431558 -0.656113
C 3.671287 -1.565474 -1.523392
H 3.089419 -1.365176 -2.438917
H 3.911222 -0.605781 -1.039394
H 4.593425 -2.093608 -1.788684
C -3.266014 0.258409 -0.250017
F -3.527130 1.390694 -0.919122
F -3.004666 -0.698162 -1.142527
F -4.393256 -0.097777 0.395021
C -2.120095 0.454582 0.738398
H -2.444251 1.267229 1.414290

--Link1--
%nprocshared=8
%mem=16GB
%chk=ccpvdz_Radical-0018_IRCreverse_Product.chk
# m062x cc-pvtz empiricaldispersion=gd3  Geom=Checkpoint

ccpvdz_Radical-0018_IRCreverse_Product E_ccpvtz

0 2

--Link1--
%nprocshared=8
%mem=16GB
%chk=ccpvdz_Radical-0018_IRCreverse_Product.chk
# m062x cc-pvqz empiricaldispersion=gd3  Geom=Checkpoint

ccpvdz_Radical-0018_IRCreverse_Product E_ccpvqz

0 2

