%nprocshared=8
%mem=16GB
%chk=ccpvdz_Radical-0008_IRCforward_Complex.chk
# opt=calcfc freq m062x cc-pvdz empiricaldispersion=gd3 

ccpvdz_Radical-0008_IRCforward_Complex optfreq

0 2
C -1.946284 -2.081840 -1.269005
C -0.891414 -1.568387 -1.996532
C -0.057937 -0.630766 -1.369520
C -0.275450 -0.220658 -0.035663
C -1.351007 -0.767041 0.700012
C -2.177021 -1.688084 0.073559
H -2.633066 -2.807590 -1.703473
H -0.724375 -1.879082 -3.028515
H -1.512845 -0.465917 1.734632
C 0.713814 0.774686 0.271857
N 1.025328 0.072333 -1.843917
H 1.380460 0.033188 -2.787679
C 0.750272 1.626361 1.502618
H 0.357367 1.052705 2.358366
H 1.783346 1.901397 1.764388
C -0.077828 2.912371 1.309506
H 0.421434 3.568276 0.584716
H -0.172272 3.456137 2.261439
N -1.397151 2.655719 0.762494
H -2.017899 2.061528 1.300508
C -1.595854 2.658166 -0.599079
C -2.883259 2.005918 -1.056244
H -3.218372 2.498311 -1.975811
H -2.672719 0.947736 -1.280719
H -3.673133 2.052566 -0.294226
O -0.800143 3.147452 -1.378894
O -3.257509 -2.282716 0.656896
C -3.555785 -1.906279 1.978198
H -4.448286 -2.471656 2.267752
H -2.728707 -2.151186 2.665806
H -3.770336 -0.825463 2.049867
C 3.297356 -0.972600 0.357560
F 2.459065 -1.961921 0.135066
F 4.529612 -1.318341 0.022223
F 3.253283 -0.588596 1.620904
C 1.470562 0.926008 -0.865888
H 2.283633 1.618960 -1.064196

--Link1--
%nprocshared=8
%mem=16GB
%chk=ccpvdz_Radical-0008_IRCforward_Complex.chk
# m062x cc-pvtz empiricaldispersion=gd3  Geom=Checkpoint

ccpvdz_Radical-0008_IRCforward_Complex E_ccpvtz

0 2

--Link1--
%nprocshared=8
%mem=16GB
%chk=ccpvdz_Radical-0008_IRCforward_Complex.chk
# m062x cc-pvqz empiricaldispersion=gd3  Geom=Checkpoint

ccpvdz_Radical-0008_IRCforward_Complex E_ccpvqz

0 2

