%nprocshared=8
%mem=16GB
%chk=ccpvdz_Radical-0007_IRCreverse_Product.chk
# opt=calcfc freq m062x cc-pvdz empiricaldispersion=gd3 

ccpvdz_Radical-0007_IRCreverse_Product optfreq

0 2
C 2.502748 -1.756052 0.886585
C 1.292943 -1.600816 1.582618
C 0.258652 -0.905278 0.978960
C 0.415426 -0.348734 -0.331010
C 1.643218 -0.492369 -1.006264
C 2.673803 -1.203491 -0.396941
H 3.309383 -2.310744 1.361353
H 1.181167 -2.019119 2.582947
H 1.804406 -0.090351 -2.007013
C -0.779899 0.298076 -0.680830
N -0.978134 -0.551798 1.474150
H -1.435461 -1.080120 2.206031
C -0.976619 1.244067 -1.812498
H -0.321804 0.948735 -2.648056
H -2.011794 1.211886 -2.184841
C -0.648858 2.702419 -1.403555
H -1.399465 3.069832 -0.692201
H -0.670308 3.350428 -2.291182
N 0.633934 2.829409 -0.743899
H 1.469623 2.655605 -1.290626
C 0.724951 2.618229 0.609476
C 2.125883 2.427635 1.143930
H 2.174736 2.844289 2.156127
H 2.320486 1.344501 1.204003
H 2.889964 2.890507 0.505652
O -0.259469 2.579474 1.328183
O 3.823483 -1.316434 -1.124087
C 4.871800 -2.073027 -0.566564
H 4.562534 -3.114538 -0.376951
H 5.681225 -2.065369 -1.304909
H 5.236737 -1.629716 0.375383
C -2.919176 -0.799173 0.026719
F -3.732484 -1.043971 1.071167
F -3.660153 -0.222961 -0.932056
F -2.504503 -1.982758 -0.431930
C -1.762456 0.098946 0.443539
H -2.191576 1.053112 0.798449

--Link1--
%nprocshared=8
%mem=16GB
%chk=ccpvdz_Radical-0007_IRCreverse_Product.chk
# m062x cc-pvtz empiricaldispersion=gd3  Geom=Checkpoint

ccpvdz_Radical-0007_IRCreverse_Product E_ccpvtz

0 2

--Link1--
%nprocshared=8
%mem=16GB
%chk=ccpvdz_Radical-0007_IRCreverse_Product.chk
# m062x cc-pvqz empiricaldispersion=gd3  Geom=Checkpoint

ccpvdz_Radical-0007_IRCreverse_Product E_ccpvqz

0 2

