%nprocshared=8
%mem=16GB
%chk=ccpvdz_Radical-0004_IRCforward_Complex_R2.chk
# opt=calcfc freq m062x cc-pvdz empiricaldispersion=gd3 

ccpvdz_Radical-0004_IRCforward_Complex_R2 optfreq

0 1
 C      -0.89466000     -2.09140800      1.58182100
 C      -0.79082700     -0.88668100      2.24704900
 C      -0.35357400      0.22881100      1.51735000
 C      -0.01589400      0.13313000      0.14941800
 C      -0.14633400     -1.10308300     -0.52137500
 C      -0.58518000     -2.20147400      0.20233800
 H      -1.22899500     -2.99322700      2.09366000
 H      -1.04471500     -0.81200100      3.30508800
 H       0.07678800     -1.17141800     -1.58564300
 C       0.38566700      1.44382500     -0.28527700
 N      -0.18214600      1.54173800      1.89012700
 H      -0.30407500      1.90681800      2.82294200
 C       0.98009000      1.77667100     -1.61795000
 H       0.51121500      1.15028600     -2.39523000
 H       0.77116000      2.82138800     -1.89419300
 C       2.50659000      1.56183200     -1.61957100
 H       2.98448900      2.30622700     -0.96979500
 H       2.90895100      1.67881900     -2.63706800
 N       2.89628200      0.26974900     -1.08770400
 H       2.55313300     -0.55621000     -1.56434900
 C       3.17339400      0.12545900      0.25216500
 C       3.19033400     -1.30384400      0.75087200
 H       2.19896600     -1.52930600      1.17544900
 H       3.40520500     -2.02952400     -0.04525900
 H       3.93745700     -1.38818500      1.54805800
 O       3.39009200      1.07280300      0.98385000
 O      -0.75676100     -3.45092000     -0.31609400
 C      -0.47009500     -3.61744100     -1.68254200
 H      -0.66795900     -4.66950600     -1.91481000
 H      -1.11146900     -2.97650400     -2.31077700
 H       0.58744500     -3.38888700     -1.90292900
 C       0.27058700      2.26137500      0.81140000
 H       0.50636900      3.31700700      0.91110400

--Link1--
%nprocshared=8
%mem=16GB
%chk=ccpvdz_Radical-0004_IRCforward_Complex_R2.chk
# m062x cc-pvtz empiricaldispersion=gd3 Geom=Checkpoint

ccpvdz_Radical-0004_IRCforward_Complex_R2 E_ccpvtz

0 1

--Link1--
%nprocshared=8
%mem=16GB
%chk=ccpvdz_Radical-0004_IRCforward_Complex_R2.chk
# m062x cc-pvqz empiricaldispersion=gd3 Geom=Checkpoint

ccpvdz_Radical-0004_IRCforward_Complex_R2 E_ccpvqz

0 1

