%nprocshared=8
%mem=16GB
%chk=ccpvdz_Radical-0005_IRCforward_Complex_R1.chk
# opt=calcfc freq m062x cc-pvdz empiricaldispersion=gd3 

ccpvdz_Radical-0005_IRCforward_Complex_R1 optfreq

0 2
 C      -1.53503300     -1.51237400      1.40293400
 F      -1.01963600     -2.72869600      1.50434000
 F      -0.89848900     -0.67336700      2.19388500
 F      -2.82536500     -1.53510100      1.67753000

--Link1--
%nprocshared=8
%mem=16GB
%chk=ccpvdz_Radical-0005_IRCforward_Complex_R1.chk
# m062x cc-pvtz empiricaldispersion=gd3 Geom=Checkpoint

ccpvdz_Radical-0005_IRCforward_Complex_R1 E_ccpvtz

0 2

--Link1--
%nprocshared=8
%mem=16GB
%chk=ccpvdz_Radical-0005_IRCforward_Complex_R1.chk
# m062x cc-pvqz empiricaldispersion=gd3 Geom=Checkpoint

ccpvdz_Radical-0005_IRCforward_Complex_R1 E_ccpvqz

0 2

