%nprocshared=8
%mem=16GB
%chk=ccpvdz_Radical-0008_IRCforward_Complex_R1.chk
# opt=calcfc freq m062x cc-pvdz empiricaldispersion=gd3 

ccpvdz_Radical-0008_IRCforward_Complex_R1 optfreq

0 2
 C      -2.73436600      1.15323200     -0.31858500
 F      -3.29500400      0.02883500      0.07652900
 F      -3.52445700      2.18351300     -0.07271700
 F      -2.42986100      1.09897700     -1.60288300

--Link1--
%nprocshared=8
%mem=16GB
%chk=ccpvdz_Radical-0008_IRCforward_Complex_R1.chk
# m062x cc-pvtz empiricaldispersion=gd3 Geom=Checkpoint

ccpvdz_Radical-0008_IRCforward_Complex_R1 E_ccpvtz

0 2

--Link1--
%nprocshared=8
%mem=16GB
%chk=ccpvdz_Radical-0008_IRCforward_Complex_R1.chk
# m062x cc-pvqz empiricaldispersion=gd3 Geom=Checkpoint

ccpvdz_Radical-0008_IRCforward_Complex_R1 E_ccpvqz

0 2

