%nprocshared=12
%mem=12GB
# irc=(reverse,phase=(32,36),calcfc,maxpoints=100,recalc=3,Tight) m062x cc-pvdz empiricaldispersion=gd3 

ccpvdz_Radical-0006_IRCreverse.gjf IRCreverse

0 2
C 2.27641 -1.788987 0.881339
C 1.153282 -1.549755 1.666162
C 0.129097 -0.767257 1.134615
C 0.213554 -0.226883 -0.175921
C 1.351691 -0.483885 -0.957344
C 2.373789 -1.26062 -0.427
H 3.081392 -2.395199 1.29171
H 1.08914 -1.962509 2.673314
H 1.460145 -0.100616 -1.972933
C -0.968079 0.549089 -0.394582
N -1.058473 -0.338432 1.681948
H -1.401671 -0.577815 2.600091
C -1.224158 1.471048 -1.541678
H -0.732251 1.078746 -2.446518
H -2.299741 1.527347 -1.768145
C -0.69642 2.888147 -1.234597
H -1.301061 3.344075 -0.440033
H -0.763169 3.523518 -2.129927
N 0.668438 2.885778 -0.743589
H 1.394906 2.560102 -1.370972
C 0.920268 2.763174 0.601746
C 2.349584 2.416284 0.958461
H 3.06553 2.704656 0.177448
H 2.60375 2.909203 1.90363
H 2.408147 1.32611 1.107155
O 0.058314 2.918671 1.44782
O 3.449933 -1.464029 -1.242527
C 4.499606 -2.263137 -0.750979
H 4.96131 -1.820512 0.147873
H 4.155987 -3.283732 -0.513061
H 5.246481 -2.312285 -1.551102
C -3.136822 -1.235601 -0.159012
F -2.368112 -2.315341 -0.134695
F -4.248541 -1.467177 0.539791
F -3.460939 -0.943444 -1.41557
C -1.741048 0.413366 0.753
H -2.610825 0.994113 1.04962

