%nprocshared=8
%mem=16GB
%chk=ccpvdz_Radical-0006_IRCforward_Complex.chk
# opt=calcfc freq m062x cc-pvdz empiricaldispersion=gd3 

ccpvdz_Radical-0006_IRCforward_Complex optfreq

0 2
C 2.326409 -1.740978 0.893708
C 1.264920 -1.434989 1.737526
C 0.241277 -0.623928 1.247012
C 0.263822 -0.120564 -0.078202
C 1.335045 -0.451385 -0.921737
C 2.360184 -1.252282 -0.432531
H 3.132194 -2.366849 1.271690
H 1.248494 -1.816469 2.759078
H 1.396187 -0.100428 -1.953187
C -0.895974 0.716009 -0.237070
N -0.892682 -0.129256 1.852518
H -1.144256 -0.261357 2.820630
C -1.176508 1.610922 -1.403936
H -0.779343 1.149581 -2.322928
H -2.259180 1.731753 -1.560924
C -0.541109 3.000578 -1.197591
H -1.068119 3.532748 -0.395167
H -0.616361 3.598411 -2.118215
N 0.845517 2.928778 -0.776317
H 1.501136 2.473554 -1.401608
C 1.163444 2.895648 0.561062
C 2.574074 2.440689 0.870072
H 3.273412 2.647156 0.048811
H 2.909735 2.939288 1.786157
H 2.553043 1.353407 1.048590
O 0.374314 3.207812 1.433793
O 3.376993 -1.516165 -1.306281
C 4.446377 -2.305137 -0.842567
H 4.958512 -1.833201 0.013086
H 4.110544 -3.313535 -0.547844
H 5.148512 -2.390829 -1.679375
C -3.166350 -1.414680 -0.236895
F -2.170479 -2.266052 -0.115590
F -4.302968 -1.963229 0.160158
F -3.272082 -0.981687 -1.480076
C -1.552995 0.688343 0.968204
H -2.441926 1.231595 1.277577

--Link1--
%nprocshared=8
%mem=16GB
%chk=ccpvdz_Radical-0006_IRCforward_Complex.chk
# m062x cc-pvtz empiricaldispersion=gd3  Geom=Checkpoint

ccpvdz_Radical-0006_IRCforward_Complex E_ccpvtz

0 2

--Link1--
%nprocshared=8
%mem=16GB
%chk=ccpvdz_Radical-0006_IRCforward_Complex.chk
# m062x cc-pvqz empiricaldispersion=gd3  Geom=Checkpoint

ccpvdz_Radical-0006_IRCforward_Complex E_ccpvqz

0 2

