%nprocshared=12
%mem=12GB
# irc=(reverse,phase=(32,36),calcfc,maxpoints=100,recalc=3,Tight) m062x cc-pvdz empiricaldispersion=gd3 

ccpvdz_Radical-0008_IRCreverse.gjf IRCreverse

0 2
C -1.895034 -2.129881 -1.279284
C -0.779064 -1.669953 -1.950271
C 0.059669 -0.766795 -1.282843
C -0.215164 -0.337457 0.037297
C -1.358466 -0.82439 0.712535
C -2.184472 -1.715659 0.046707
H -2.586542 -2.830313 -1.746656
H -0.567302 -1.99778 -2.968405
H -1.564023 -0.505847 1.733724
C 0.799389 0.598766 0.401312
N 1.198166 -0.120547 -1.70075
H 1.643717 -0.239173 -2.59846
C 0.814228 1.469676 1.615089
H 0.322432 0.947134 2.451912
H 1.846157 1.674802 1.938141
C 0.093671 2.80593 1.34006
H 0.677435 3.400892 0.625921
H -0.010377 3.384004 2.270072
N -1.211423 2.626036 0.732984
H -1.922185 2.149333 1.275834
C -1.335336 2.554172 -0.634508
C -2.657433 2.01042 -1.131104
H -2.908759 2.507887 -2.07455
H -2.531733 0.933578 -1.327801
H -3.471575 2.144555 -0.406208
O -0.447443 2.899848 -1.39224
O -3.316575 -2.263547 0.57247
C -3.655046 -1.888692 1.885069
H -4.577419 -2.425249 2.132419
H -2.86464 -2.168839 2.601551
H -3.835027 -0.801929 1.959323
C 3.241758 -0.800526 0.267082
F 2.64694 -1.979791 0.151059
F 4.425339 -0.840074 -0.345973
F 3.424738 -0.516736 1.55477
C 1.675403 0.666047 -0.678273
H 2.457024 1.397562 -0.866206

