%nprocshared=8
%mem=16GB
%chk=ccpvdz_Radical-0047_IRCforward_Complex.chk
# opt=calcfc freq m062x cc-pvdz empiricaldispersion=gd3 

ccpvdz_Radical-0047_IRCforward_Complex optfreq

0 2
C 3.482045 1.257019 0.417718
C 2.530318 2.065162 -0.170573
C 1.435978 1.443528 -0.790372
C 1.292099 0.038432 -0.806592
C 2.283570 -0.773346 -0.211744
C 3.368713 -0.155411 0.390968
H 4.355783 1.680596 0.912145
H 2.634971 3.150688 -0.154790
H 2.197824 -1.857978 -0.254331
C 0.076049 -0.259539 -1.520105
N 0.369278 1.975934 -1.480668
H 0.195911 2.960075 -1.621801
C -0.512160 -1.612913 -1.767417
H -1.427902 -1.524171 -2.368020
H 0.195313 -2.237711 -2.338754
C -0.866185 -2.370344 -0.479548
H 0.032193 -2.533688 0.131256
H -1.283485 -3.350987 -0.753617
N -1.834277 -1.679152 0.351621
H -1.548235 -1.295947 1.241958
C -3.155131 -1.680438 0.013710
C -4.100881 -1.067486 1.025916
H -3.586854 -0.557510 1.849478
H -4.753940 -0.357092 0.504164
H -4.734617 -1.869639 1.428884
O -3.547917 -2.170024 -1.031665
O 4.398970 -0.817370 0.991551
C 4.353699 -2.223434 0.967173
H 3.463065 -2.607953 1.493027
H 4.351340 -2.608835 -0.066496
H 5.256109 -2.570587 1.482198
C -1.420563 1.446680 0.896197
F -1.017404 2.686747 1.083261
F -2.580992 1.424517 0.269953
F -1.508708 0.808562 2.056992
C -0.442595 0.950162 -1.911114
H -1.353102 1.155517 -2.467785

--Link1--
%nprocshared=8
%mem=16GB
%chk=ccpvdz_Radical-0047_IRCforward_Complex.chk
# m062x cc-pvtz empiricaldispersion=gd3  Geom=Checkpoint

ccpvdz_Radical-0047_IRCforward_Complex E_ccpvtz

0 2

--Link1--
%nprocshared=8
%mem=16GB
%chk=ccpvdz_Radical-0047_IRCforward_Complex.chk
# m062x cc-pvqz empiricaldispersion=gd3  Geom=Checkpoint

ccpvdz_Radical-0047_IRCforward_Complex E_ccpvqz

0 2

