%nprocshared=8
%mem=16GB
%chk=ccpvdz_Radical-0018_IRCforward_Complex_R1.chk
# opt=calcfc freq m062x cc-pvdz empiricaldispersion=gd3 

ccpvdz_Radical-0018_IRCforward_Complex_R1 optfreq

0 2
 C       2.99973000      0.04028100     -0.78609200
 F       2.73698200     -0.65863800     -1.87623000
 F       3.24170800      1.29943800     -1.08483600
 F       4.01834800     -0.49007500     -0.12976300

--Link1--
%nprocshared=8
%mem=16GB
%chk=ccpvdz_Radical-0018_IRCforward_Complex_R1.chk
# m062x cc-pvtz empiricaldispersion=gd3 Geom=Checkpoint

ccpvdz_Radical-0018_IRCforward_Complex_R1 E_ccpvtz

0 2

--Link1--
%nprocshared=8
%mem=16GB
%chk=ccpvdz_Radical-0018_IRCforward_Complex_R1.chk
# m062x cc-pvqz empiricaldispersion=gd3 Geom=Checkpoint

ccpvdz_Radical-0018_IRCforward_Complex_R1 E_ccpvqz

0 2

