%nprocshared=8
%mem=16GB
%chk=ccpvdz_Radical-0047_IRCforward_Complex_R1.chk
# opt=calcfc freq m062x cc-pvdz empiricaldispersion=gd3 

ccpvdz_Radical-0047_IRCforward_Complex_R1 optfreq

0 2
 C       0.82418700      1.72166900     -0.86365300
 F       0.08256100      2.80418400     -0.95129500
 F       1.98141700      1.99286900     -0.29160000
 F       1.01847800      1.19432900     -2.06798100

--Link1--
%nprocshared=8
%mem=16GB
%chk=ccpvdz_Radical-0047_IRCforward_Complex_R1.chk
# m062x cc-pvtz empiricaldispersion=gd3 Geom=Checkpoint

ccpvdz_Radical-0047_IRCforward_Complex_R1 E_ccpvtz

0 2

--Link1--
%nprocshared=8
%mem=16GB
%chk=ccpvdz_Radical-0047_IRCforward_Complex_R1.chk
# m062x cc-pvqz empiricaldispersion=gd3 Geom=Checkpoint

ccpvdz_Radical-0047_IRCforward_Complex_R1 E_ccpvqz

0 2

