%nprocshared=8
%mem=16GB
%chk=ccpvdz_Radical-0007_IRCforward_Complex_R1.chk
# opt=calcfc freq m062x cc-pvdz empiricaldispersion=gd3 

ccpvdz_Radical-0007_IRCforward_Complex_R1 optfreq

0 2
 C      -2.34951400      1.83017200     -0.23464700
 F      -2.87700400      2.94863900      0.23206700
 F      -2.02464000      1.96506600     -1.50662400
 F      -3.17613900      0.81805900     -0.06656400

--Link1--
%nprocshared=8
%mem=16GB
%chk=ccpvdz_Radical-0007_IRCforward_Complex_R1.chk
# m062x cc-pvtz empiricaldispersion=gd3 Geom=Checkpoint

ccpvdz_Radical-0007_IRCforward_Complex_R1 E_ccpvtz

0 2

--Link1--
%nprocshared=8
%mem=16GB
%chk=ccpvdz_Radical-0007_IRCforward_Complex_R1.chk
# m062x cc-pvqz empiricaldispersion=gd3 Geom=Checkpoint

ccpvdz_Radical-0007_IRCforward_Complex_R1 E_ccpvqz

0 2

