%nprocshared=8
%mem=16GB
%chk=ccpvdz_Radical-0045_SP.chk
# opt=(calcfc,ts,noeigentest) freq m062x cc-pvdz empiricaldispersion=gd3 

ccpvdz_Radical-0045_SP cc-pVTZ_SP

0 2
C -3.617901 -0.176067 1.10104
C -2.522139 0.289225 1.820508
C -1.261315 0.197216 1.234821
C -1.084226 -0.353701 -0.061572
C -2.200013 -0.81544 -0.775051
C -3.457352 -0.726435 -0.190366
H -4.606113 -0.107078 1.551174
H -2.657834 0.715327 2.814993
H -2.115609 -1.238293 -1.776489
C 0.314972 -0.296971 -0.36276
N -0.016966 0.556182 1.704628
H 0.167061 1.029074 2.576966
C 0.950729 -0.686643 -1.66021
H 0.540925 -1.655845 -1.995192
H 0.671641 0.044241 -2.439344
C 2.476088 -0.764459 -1.616889
H 2.902451 0.172378 -1.235478
H 2.861906 -0.913125 -2.636763
N 2.968611 -1.824436 -0.757312
H 2.721566 -2.779232 -0.984652
C 3.672761 -1.59841 0.38536
C 4.029561 -2.840459 1.175152
H 3.223777 -3.042216 1.896098
H 4.159435 -3.724167 0.536582
H 4.950348 -2.642948 1.73419
O 3.974728 -0.47865 0.770072
O -4.496203 -1.197401 -0.941914
C -5.79007 -1.103237 -0.396997
H -5.882941 -1.685888 0.535227
H -6.07097 -0.055837 -0.194703
H -6.469735 -1.518985 -1.149232
C 1.004145 2.420453 -0.251225
F 1.579055 2.356225 -1.454275
F -0.269465 2.762567 -0.388308
F 1.63096 3.333006 0.487315
C 0.927808 0.324722 0.72442
H 1.991149 0.403833 0.950174

--Link1--
%nprocshared=8
%mem=16GB
%chk=ccpvdz_Radical-0045_SP.chk
# m062x cc-pvtz empiricaldispersion=gd3  Geom=Checkpoint 

ccpvdz_Radical-0045_SP cc-pVQT_SP

0 2

--Link1--
%nprocshared=8
%mem=16GB
%chk=ccpvdz_Radical-0045_SP.chk
# m062x cc-pvqz empiricaldispersion=gd3  Geom=Checkpoint 

ccpvdz_Radical-0045_SP cc-pVQZ_SP

0 2

