%nprocshared=8
%mem=16GB
%chk=ccpvdz_Radical-0004_IRCreverse_Product.chk
# opt=calcfc freq m062x cc-pvdz empiricaldispersion=gd3 

ccpvdz_Radical-0004_IRCreverse_Product optfreq

0 2
C 2.139990 -2.096922 1.298190
C 0.928720 -1.718865 1.874364
C 0.061345 -0.924941 1.129898
C 0.402344 -0.499487 -0.192625
C 1.649676 -0.877537 -0.755872
C 2.496566 -1.680779 -0.006281
H 2.849010 -2.724560 1.836783
H 0.673867 -2.035464 2.885830
H 1.904129 -0.559120 -1.765460
C -0.638267 0.293564 -0.683381
N -1.139007 -0.359954 1.486289
H -1.713160 -0.710677 2.241015
C -0.594603 1.176921 -1.881051
H 0.073306 0.732016 -2.636429
H -1.587788 1.271663 -2.345811
C -0.083814 2.595987 -1.525897
H -0.824808 3.117324 -0.906509
H 0.065466 3.179663 -2.445448
N 1.145322 2.577864 -0.760043
H 1.982991 2.234923 -1.216051
C 1.094071 2.453560 0.606639
C 2.399816 2.084555 1.272697
H 2.420214 0.989758 1.398096
H 3.275731 2.390562 0.685342
H 2.430646 2.546904 2.265464
O 0.064147 2.623754 1.236713
O 3.709355 -2.131873 -0.433594
C 4.102502 -1.770514 -1.734925
H 5.081352 -2.232938 -1.901896
H 3.388418 -2.140755 -2.489544
H 4.195494 -0.675460 -1.838486
C -2.986303 -0.371704 -0.095816
F -2.756228 -1.636072 -0.456652
F -3.900204 -0.402988 0.891990
F -3.545966 0.258933 -1.140044
C -1.722027 0.342389 0.362401
H -2.002419 1.377751 0.628471

--Link1--
%nprocshared=8
%mem=16GB
%chk=ccpvdz_Radical-0004_IRCreverse_Product.chk
# m062x cc-pvtz empiricaldispersion=gd3  Geom=Checkpoint

ccpvdz_Radical-0004_IRCreverse_Product E_ccpvtz

0 2

--Link1--
%nprocshared=8
%mem=16GB
%chk=ccpvdz_Radical-0004_IRCreverse_Product.chk
# m062x cc-pvqz empiricaldispersion=gd3  Geom=Checkpoint

ccpvdz_Radical-0004_IRCreverse_Product E_ccpvqz

0 2

