%nprocshared=12
%mem=12GB
# irc=(forward,phase=(32,36),calcfc,maxpoints=100,recalc=3,Tight) m062x cc-pvdz empiricaldispersion=gd3 

ccpvdz_Radical-0001_IRCforward.gjf IRCforward

0 2
C 2.121091 -2.438919 -0.67559
C 0.844032 -2.92458 -0.489966
C -0.048631 -2.140904 0.253968
C 0.327944 -0.892637 0.807962
C 1.645895 -0.416427 0.609515
C 2.522651 -1.189338 -0.135022
H 2.861166 -2.997197 -1.248448
H 0.541383 -3.882735 -0.913519
H 1.953601 0.549401 1.00113
C -0.827698 -0.361449 1.472612
N -1.364159 -2.375961 0.585502
H -1.924332 -3.141324 0.239206
C -1.006411 0.918097 2.238952
H -2.085996 1.136487 2.283078
H -0.67931 0.790639 3.284599
C -0.268136 2.140295 1.675047
H 0.810433 2.089484 1.868495
H -0.637648 3.042105 2.189853
N -0.419605 2.263712 0.241246
H -1.320575 2.049697 -0.167428
C 0.645507 2.436324 -0.588429
C 0.34873 2.25737 -2.059488
H 0.622296 1.225658 -2.327891
H -0.710509 2.409426 -2.303544
H 0.97723 2.945352 -2.635696
O 1.770864 2.675774 -0.17303
O 3.80403 -0.840694 -0.417259
C 4.238738 0.422501 0.052054
H 3.595025 1.23506 -0.319281
H 4.248165 0.449464 1.155186
H 5.261554 0.546715 -0.319904
C -2.762381 -0.178597 -0.626105
F -1.756814 -0.120049 -1.4934
F -3.767794 -0.863902 -1.163644
F -3.179436 1.075302 -0.374318
C -1.855854 -1.275944 1.251406
H -2.841741 -1.300039 1.709989

