%nprocshared=8
%mem=16GB
%chk=ccpvdz_Radical-0002_IRCforward_Complex_R2.chk
# opt=calcfc freq m062x cc-pvdz empiricaldispersion=gd3 

ccpvdz_Radical-0002_IRCforward_Complex_R2 optfreq

0 1
 C      -1.06450100     -2.83845600      0.15081100
 C       0.26772200     -2.92837200     -0.20253700
 C       0.84821300     -1.82344500     -0.84537900
 C       0.10544000     -0.65377200     -1.11319200
 C      -1.26067300     -0.58675800     -0.77231400
 C      -1.82859700     -1.67805900     -0.13495300
 H      -1.57004100     -3.66146800      0.65536900
 H       0.84391800     -3.82721100      0.02025900
 H      -1.83075700      0.31327400     -0.99838100
 C       0.99928000      0.29982900     -1.71534400
 N       2.13657000     -1.59893800     -1.28094200
 H       2.89716300     -2.25988100     -1.22686100
 C       0.63865200      1.70144100     -2.10335300
 H       1.22901700      2.02641200     -2.97376900
 H      -0.42010500      1.73946800     -2.39596100
 C       0.86028000      2.73222800     -0.98286700
 H       0.47778700      3.70902100     -1.31888300
 H       1.93595800      2.83241300     -0.78113100
 N       0.23060500      2.38434200      0.27934000
 H       0.81667900      2.21987400      1.08532600
 C      -1.11862500      2.36689200      0.43793600
 C      -1.60507500      1.94231000      1.80655000
 H      -0.90724300      2.21362400      2.60986800
 H      -2.58480400      2.39877300      1.98648300
 H      -1.71512500      0.84655600      1.80396800
 O      -1.88461500      2.62140200     -0.48140000
 O      -3.12860300     -1.72919700      0.27286000
 C      -3.95049300     -0.64754200     -0.11184100
 H      -3.58626000      0.31174600      0.29199100
 H      -4.00400200     -0.56162900     -1.20999000
 H      -4.94694000     -0.86149600      0.28976000
 C       2.22119500     -0.32409400     -1.79807700
 H       3.16070600      0.04515900     -2.20111900

--Link1--
%nprocshared=8
%mem=16GB
%chk=ccpvdz_Radical-0002_IRCforward_Complex_R2.chk
# m062x cc-pvtz empiricaldispersion=gd3 Geom=Checkpoint

ccpvdz_Radical-0002_IRCforward_Complex_R2 E_ccpvtz

0 1

--Link1--
%nprocshared=8
%mem=16GB
%chk=ccpvdz_Radical-0002_IRCforward_Complex_R2.chk
# m062x cc-pvqz empiricaldispersion=gd3 Geom=Checkpoint

ccpvdz_Radical-0002_IRCforward_Complex_R2 E_ccpvqz

0 1

